789,193
593,285
766,433
829,-50
810,805
751,-38
716,454
504,753
482,470
829,-50
649,613
963,794
764,662
622,415
536,301
746,820
536,511
769,527
448,173
141,406
718,643
441,528
1066,345
999,88
741,406
1137,258
178,327
148,322
563,424
561,406
737,761
201,406
317,142
690,347
738,424
681,46
450,-48
841,325
